; benchmark generated from python API
(set-info :status unknown)
(declare-fun W_S2_V1 () Bool)
(declare-fun W_S2_V2 () Bool)
(declare-fun DISJ_W_S1_R_S1 () Bool)
(declare-fun DISJ_W_S2_R_S2 () Bool)
(declare-fun DISJ_W_S2_R_S1 () Bool)
(declare-fun W_S2_V3 () Bool)
(declare-fun W_S2_V5 () Bool)
(declare-fun W_S1_V1 () Bool)
(declare-fun W_S1_V2 () Bool)
(declare-fun W_S1_V5 () Bool)
(declare-fun W_S1_V4 () Bool)
(declare-fun R_S1_V1 () Bool)
(declare-fun R_S1_V3 () Bool)
(declare-fun R_S1_V2 () Bool)
(declare-fun R_S1_V5 () Bool)
(declare-fun R_S1_V4 () Bool)
(declare-fun R_S2_V1 () Bool)
(declare-fun R_S2_V3 () Bool)
(declare-fun R_S2_V2 () Bool)
(declare-fun R_S2_V5 () Bool)
(declare-fun R_S2_V4 () Bool)
(declare-fun DISJ_W_S1_W_S2 () Bool)
(declare-fun DISJ_W_S1_R_S2 () Bool)
(declare-fun W_S2_V4 () Bool)
(declare-fun W_S1_V3 () Bool)
(assert
 (let (($x4397 (not (and (not W_S2_V2) (not W_S2_V1)))))
 (let (($x2543 (not (and (not W_S2_V2) DISJ_W_S2_R_S1 DISJ_W_S2_R_S2 DISJ_W_S1_R_S1))))
 (let (($x4995 (forall ((V4_0 Int) )(forall ((V5_0 Int) )(forall ((V2_0 Int) )(forall ((V3_0 Int) )(forall ((V1_0 Int) )(forall ((MW_S1_V4 Bool) )(forall ((MW_S1_V5 Bool) )(forall ((MW_S1_V2 Bool) )(forall ((MW_S1_V3 Bool) )(forall ((MW_S1_V1 Bool) )(forall ((MW_S2_V4 Bool) )(forall ((MW_S2_V5 Bool) )(forall ((MW_S2_V2 Bool) )(forall ((MW_S2_V3 Bool) )(forall ((MW_S2_V1 Bool) )(forall ((S1_V4_!160 Int) )(forall ((S1_V4_!170 Int) )(forall ((S1_V4_!180 Int) )(forall ((S2_V4_!165 Int) )(forall ((S2_V4_!175 Int) )(forall ((S2_V4_!185 Int) )(forall ((S2_V5_!166 Int) )(forall ((S2_V5_!176 Int) )(forall ((S2_V5_!186 Int) )(forall ((S1_V1_!164 Int) )(forall ((S1_V1_!174 Int) )(forall ((S1_V1_!184 Int) )(forall ((S1_V3_!163 Int) )(forall ((S1_V3_!173 Int) )(forall ((S1_V3_!183 Int) )(forall ((S1_V2_!162 Int) )(forall ((S1_V2_!172 Int) )(forall ((S1_V2_!182 Int) )(forall ((S2_V1_!169 Int) )(forall ((S2_V1_!179 Int) )(forall ((S2_V1_!189 Int) )(forall ((S2_V2_!167 Int) )(forall ((S2_V2_!177 Int) )(forall ((S2_V2_!187 Int) )(forall ((S2_V3_!168 Int) )(forall ((S2_V3_!178 Int) )(forall ((S2_V3_!188 Int) )(forall ((S1_V5_!161 Int) )(forall ((S1_V5_!171 Int) )(forall ((S1_V5_!181 Int) )(let ((?x3364 (ite MW_S1_V1 S1_V1_!174 V1_0)))
 (let ((?x4804 (ite MW_S2_V1 S2_V1_!179 ?x3364)))
 (let ((?x602 (+ 1 ?x4804)))
 (let ((?x124 (ite MW_S1_V1 S1_V1_!184 ?x602)))
 (let ((?x3040 (ite MW_S1_V1 S1_V1_!164 V1_0)))
 (let ((?x875 (ite MW_S2_V1 S2_V1_!169 ?x3040)))
 (let (($x5809 (= (ite MW_S2_V3 S2_V3_!168 (ite MW_S1_V3 S1_V3_!163 V3_0)) (ite MW_S2_V3 S2_V3_!188 (ite MW_S1_V3 S1_V3_!183 (ite MW_S2_V3 S2_V3_!178 (ite MW_S1_V3 S1_V3_!173 V3_0)))))))
 (let ((?x5205 (ite MW_S1_V2 S1_V2_!162 V2_0)))
 (let ((?x2064 (ite MW_S2_V2 S2_V2_!167 ?x5205)))
 (let (($x1397 (= ?x2064 (ite MW_S2_V2 S2_V2_!187 (ite MW_S1_V2 S1_V2_!182 (ite MW_S2_V2 S2_V2_!177 (ite MW_S1_V2 S1_V2_!172 V2_0)))))))
 (let (($x5923 (= (ite MW_S2_V5 S2_V5_!166 (ite MW_S1_V5 S1_V5_!161 V5_0)) (ite MW_S2_V5 S2_V5_!186 (ite MW_S1_V5 S1_V5_!181 (ite MW_S2_V5 S2_V5_!176 (ite MW_S1_V5 S1_V5_!171 V5_0)))))))
 (let (($x5718 (= (ite MW_S2_V4 S2_V4_!165 (ite MW_S1_V4 S1_V4_!160 V4_0)) (ite MW_S2_V4 S2_V4_!185 (ite MW_S1_V4 S1_V4_!180 (ite MW_S2_V4 S2_V4_!175 (ite MW_S1_V4 S1_V4_!170 V4_0)))))))
 (let (($x4671 (>= ?x124 (+ (- 1) (ite MW_S1_V2 S1_V2_!182 (ite MW_S2_V2 S2_V2_!177 (ite MW_S1_V2 S1_V2_!172 V2_0)))))))
 (let (($x2627 (and (not (<= V2_0 V1_0)) (>= ?x875 (+ (- 1) ?x2064)) (not (<= (ite MW_S1_V2 S1_V2_!172 V2_0) (+ 1 ?x3364))) $x4671)))
 (let (($x2799 (= S1_V5_!181 S1_V5_!171)))
 (let (($x2252 (and (or (not R_S1_V4) (= (ite MW_S2_V4 S2_V4_!175 (ite MW_S1_V4 S1_V4_!170 V4_0)) V4_0)) (or (not R_S1_V5) (= (ite MW_S2_V5 S2_V5_!176 (ite MW_S1_V5 S1_V5_!171 V5_0)) V5_0)) (or (not R_S1_V2) (= (ite MW_S2_V2 S2_V2_!177 (ite MW_S1_V2 S1_V2_!172 V2_0)) V2_0)) (or (not R_S1_V3) (= (ite MW_S2_V3 S2_V3_!178 (ite MW_S1_V3 S1_V3_!173 V3_0)) V3_0)) (or (not R_S1_V1) (= ?x4804 (+ (- 1) V1_0))))))
 (let (($x3748 (not $x2252)))
 (let (($x1707 (and (or (not R_S1_V4) (= V4_0 (ite MW_S2_V4 S2_V4_!175 (ite MW_S1_V4 S1_V4_!170 V4_0)))) (or (not R_S1_V5) (= V5_0 (ite MW_S2_V5 S2_V5_!176 (ite MW_S1_V5 S1_V5_!171 V5_0)))) (or (not R_S1_V2) (= V2_0 (ite MW_S2_V2 S2_V2_!177 (ite MW_S1_V2 S1_V2_!172 V2_0)))) (or (not R_S1_V3) (= V3_0 (ite MW_S2_V3 S2_V3_!178 (ite MW_S1_V3 S1_V3_!173 V3_0)))) (or (not R_S1_V1) (= V1_0 ?x602)))))
 (let (($x1718 (not $x1707)))
 (let ((?x1344 (ite MW_S1_V3 S1_V3_!163 V3_0)))
 (let ((?x1373 (ite MW_S1_V3 S1_V3_!173 V3_0)))
 (let ((?x4563 (ite MW_S2_V3 S2_V3_!178 ?x1373)))
 (let ((?x1229 (ite MW_S1_V3 S1_V3_!183 ?x4563)))
 (let (($x3843 (not R_S2_V3)))
 (let (($x505 (not R_S2_V2)))
 (let (($x5840 (or $x505 (= (ite MW_S1_V2 S1_V2_!182 (ite MW_S2_V2 S2_V2_!177 (ite MW_S1_V2 S1_V2_!172 V2_0))) ?x5205))))
 (let ((?x5074 (ite MW_S1_V5 S1_V5_!161 V5_0)))
 (let ((?x5989 (ite MW_S1_V5 S1_V5_!171 V5_0)))
 (let ((?x588 (ite MW_S2_V5 S2_V5_!176 ?x5989)))
 (let ((?x5999 (ite MW_S1_V5 S1_V5_!181 ?x588)))
 (let (($x1945 (not R_S2_V5)))
 (let ((?x1033 (ite MW_S1_V4 S1_V4_!160 V4_0)))
 (let ((?x2494 (ite MW_S1_V4 S1_V4_!170 V4_0)))
 (let ((?x88 (ite MW_S2_V4 S2_V4_!175 ?x2494)))
 (let ((?x3137 (ite MW_S1_V4 S1_V4_!180 ?x88)))
 (let (($x3132 (not R_S2_V4)))
 (let (($x704 (and (or $x3132 (= ?x3137 ?x1033)) (or $x1945 (= ?x5999 ?x5074)) $x5840 (or $x3843 (= ?x1229 ?x1344)) (or (not R_S2_V1) (= ?x124 ?x3040)))))
 (let (($x1081 (not $x704)))
 (let ((?x4687 (ite MW_S1_V2 S1_V2_!172 V2_0)))
 (let ((?x2852 (ite MW_S2_V2 S2_V2_!177 ?x4687)))
 (let ((?x3070 (ite MW_S1_V2 S1_V2_!182 ?x2852)))
 (let (($x2245 (and (or $x3132 (= ?x2494 ?x3137)) (or $x1945 (= ?x5989 ?x5999)) (or $x505 (= ?x4687 ?x3070)) (or $x3843 (= ?x1373 ?x1229)) (or (not R_S2_V1) (= ?x3364 ?x124)))))
 (let (($x5726 (not $x2245)))
 (let (($x2552 (= S2_V3_!178 S2_V3_!168)))
 (let (($x2975 (and (or $x3132 (= ?x2494 ?x1033)) (or $x1945 (= ?x5989 ?x5074)) (or $x505 (= ?x4687 ?x5205)) (or $x3843 (= ?x1373 ?x1344)) (or (not R_S2_V1) (= ?x3364 ?x3040)))))
 (let (($x5253 (not $x2975)))
 (let (($x2691 (= S2_V2_!187 S2_V2_!177)))
 (let (($x2731 (and (or $x3132 (= ?x3137 ?x2494)) (or $x1945 (= ?x5999 ?x5989)) (or $x505 (= ?x3070 ?x4687)) (or $x3843 (= ?x1229 ?x1373)) (or (not R_S2_V1) (= ?x124 ?x3364)))))
 (let (($x1424 (not $x2731)))
 (let (($x3321 (and (or $x3132 (= ?x1033 ?x3137)) (or $x1945 (= ?x5074 ?x5999)) (or $x505 (= ?x5205 ?x3070)) (or $x3843 (= ?x1344 ?x1229)) (or (not R_S2_V1) (= ?x3040 ?x124)))))
 (let (($x2247 (not $x3321)))
 (let (($x1052 (= S2_V1_!169 S2_V1_!179)))
 (let (($x518 (and (or $x3132 (= ?x1033 ?x2494)) (or $x1945 (= ?x5074 ?x5989)) (or $x505 (= ?x5205 ?x4687)) (or $x3843 (= ?x1344 ?x1373)) (or (not R_S2_V1) (= ?x3040 ?x3364)))))
 (let (($x3105 (not $x518)))
 (let (($x4156 (= S1_V2_!162 S1_V2_!172)))
 (let (($x3567 (= S1_V3_!163 S1_V3_!173)))
 (let (($x5261 (and (= S1_V4_!160 S1_V4_!170) (or $x1718 (= S1_V4_!160 S1_V4_!180)) (or $x1718 (= S1_V4_!170 S1_V4_!180)) (or $x5253 (= S2_V4_!175 S2_V4_!165)) (or $x5726 (= S2_V4_!175 S2_V4_!185)) (or $x1081 (= S2_V4_!185 S2_V4_!165)) (or $x3105 (= S2_V5_!166 S2_V5_!176)) (or $x2247 (= S2_V5_!166 S2_V5_!186)) (or $x1424 (= S2_V5_!186 S2_V5_!176)) (= S1_V1_!164 S1_V1_!174) (or $x3748 (= S1_V1_!184 S1_V1_!164)) (or $x3748 (= S1_V1_!184 S1_V1_!174)) $x3567 (or $x1718 (= S1_V3_!163 S1_V3_!183)) (or $x1718 (= S1_V3_!173 S1_V3_!183)) $x4156 (or $x1718 (= S1_V2_!162 S1_V2_!182)) (or $x1718 (= S1_V2_!172 S1_V2_!182)) (or $x3105 $x1052) (or $x2247 (= S2_V1_!169 S2_V1_!189)) (or $x1424 (= S2_V1_!189 S2_V1_!179)) (or $x5253 (= S2_V2_!177 S2_V2_!167)) (or $x1081 (= S2_V2_!187 S2_V2_!167)) (or $x1424 $x2691) (or $x5253 $x2552) (or $x5726 (= S2_V3_!178 S2_V3_!188)) (or $x1081 (= S2_V3_!188 S2_V3_!168)) (= S1_V5_!161 S1_V5_!171) (or $x1718 (= S1_V5_!161 S1_V5_!181)) (or $x3748 $x2799) (or (not MW_S1_V4) W_S1_V4) (or (not MW_S1_V5) W_S1_V5) (or (not MW_S1_V2) W_S1_V2) (or (not MW_S1_V1) W_S1_V1) (or (not MW_S2_V5) W_S2_V5) (or (not MW_S2_V2) W_S2_V2) (or (not MW_S2_V3) W_S2_V3) (or (not MW_S2_V1) W_S2_V1))))
 (or (not $x5261) (not $x2627) (and $x5718 $x5923 $x1397 $x5809 (= ?x875 (ite MW_S2_V1 S2_V1_!189 ?x124))))))))))))))))))))))))))))))))))))))))))))))))))))))))))))))
 )
 )
 )
 )
 )
 )
 )
 )
 )
 )
 )
 )
 )
 )
 )
 )
 )
 )
 )
 )
 )
 )
 )
 )
 )
 )
 )
 )
 )
 )
 )
 )
 )
 )
 )
 )
 )
 )
 )
 )
 )
 )
 )
 )
 ))
 (let (($x4810 (and W_S2_V1 R_S2_V1)))
 (let (($x775 (and W_S2_V3 R_S2_V3)))
 (let (($x2549 (and W_S2_V2 R_S2_V2)))
 (let (($x2048 (and W_S2_V5 R_S2_V5)))
 (let (($x3341 (= DISJ_W_S2_R_S2 (not (or R_S2_V4 $x2048 $x2549 $x775 $x4810)))))
 (let (($x3259 (and W_S2_V1 R_S1_V1)))
 (let (($x2921 (and W_S2_V3 R_S1_V3)))
 (let (($x2650 (and W_S2_V2 R_S1_V2)))
 (let (($x4058 (and W_S2_V5 R_S1_V5)))
 (let (($x1151 (= DISJ_W_S2_R_S1 (not (or R_S1_V4 $x4058 $x2650 $x2921 $x3259)))))
 (let (($x4248 (and W_S1_V1 W_S2_V1)))
 (let (($x1656 (and W_S1_V2 W_S2_V2)))
 (let (($x2515 (and W_S1_V5 W_S2_V5)))
 (let (($x3382 (= DISJ_W_S1_W_S2 (not (or W_S1_V4 $x2515 $x1656 W_S2_V3 $x4248)))))
 (let (($x2130 (and W_S1_V1 R_S2_V1)))
 (let (($x960 (and W_S1_V2 R_S2_V2)))
 (let (($x5811 (and W_S1_V5 R_S2_V5)))
 (let (($x53 (and W_S1_V4 R_S2_V4)))
 (let (($x3247 (= DISJ_W_S1_R_S2 (not (or $x53 $x5811 $x960 R_S2_V3 $x2130)))))
 (let (($x1792 (and W_S1_V1 R_S1_V1)))
 (let (($x2059 (and W_S1_V2 R_S1_V2)))
 (let (($x3893 (and W_S1_V5 R_S1_V5)))
 (let (($x2706 (and W_S1_V4 R_S1_V4)))
 (let (($x1975 (= DISJ_W_S1_R_S1 (not (or $x2706 $x3893 $x2059 R_S1_V3 $x1792)))))
 (and (and W_S1_V3 W_S2_V4 $x1975 $x3247 $x3382 $x1151 $x3341 $x4995) $x2543 $x4397)))))))))))))))))))))))))))))
(check-sat)
